n = 40;
costtab =
  [|1, 12, 40, -1156,
   |1, 20, 40, -469,
   |1, 29, 40, -457,
   |1, 30, 40, -722,
   |1, 1, 1, 0,
   |2, 2, 2, 0,
   |3, 25, 28, -999,
   |3, 25, 33, -986,
   |3, 25, 39, -971,
   |3, 28, 25, -1585,
   |3, 28, 33, -1584,
   |3, 28, 39, -1561,
   |3, 33, 25, -438,
   |3, 33, 28, -451,
   |3, 33, 39, -442,
   |3, 39, 25, -365,
   |3, 39, 28, -368,
   |3, 39, 33, -383,
   |3, 3, 3, 0,
   |4, 5, 24, -730,
   |4, 24, 5, -493,
   |4, 4, 4, 0,
   |5, 4, 23, -739,
   |5, 4, 26, -731,
   |5, 4, 33, -741,
   |5, 23, 4, -1133,
   |5, 23, 26, -1124,
   |5, 23, 33, -1134,
   |5, 26, 4, -910,
   |5, 26, 23, -910,
   |5, 26, 33, -917,
   |5, 33, 4, -1068,
   |5, 33, 23, -1068,
   |5, 33, 26, -1065,
   |5, 5, 5, 0,
   |6, 22, 27, -440,
   |6, 22, 29, -462,
   |6, 22, 38, -461,
   |6, 27, 22, -1170,
   |6, 27, 29, -1189,
   |6, 27, 38, -1196,
   |6, 29, 22, -908,
   |6, 29, 27, -905,
   |6, 29, 38, -916,
   |6, 38, 22, -518,
   |6, 38, 27, -523,
   |6, 38, 29, -527,
   |6, 6, 6, 0,
   |7, 8, 19, -357,
   |7, 19, 8, -575,
   |7, 7, 7, 0,
   |8, 7, 12, -383,
   |8, 12, 7, -493,
   |8, 8, 8, 0,
   |9, 9, 9, 0,
   |10, 25, 32, -438,
   |10, 25, 33, -448,
   |10, 32, 25, -525,
   |10, 32, 33, -525,
   |10, 33, 25, -1436,
   |10, 33, 32, -1425,
   |10, 10, 10, 0,
   |11, 15, 26, -1250,
   |11, 15, 27, -1256,
   |11, 15, 34, -1249,
   |11, 26, 15, -1143,
   |11, 26, 27, -1140,
   |11, 26, 34, -1153,
   |11, 27, 15, -366,
   |11, 27, 26, -357,
   |11, 27, 34, -357,
   |11, 34, 15, -751,
   |11, 34, 26, -762,
   |11, 34, 27, -749,
   |11, 11, 11, 0,
   |12, 8, 1, -503,
   |12, 8, 20, -503,
   |12, 20, 1, -744,
   |12, 20, 8, -739,
   |12, 12, 12, 0,
   |13, 13, 13, 0,
   |14, 14, 14, 0,
   |15, 11, 27, -1260,
   |15, 11, 31, -1260,
   |15, 11, 36, -1252,
   |15, 27, 11, -1078,
   |15, 27, 31, -1077,
   |15, 27, 36, -1072,
   |15, 31, 11, -1054,
   |15, 31, 27, -1054,
   |15, 31, 36, -1049,
   |15, 36, 11, -529,
   |15, 36, 27, -531,
   |15, 36, 31, -531,
   |15, 15, 15, 0,
   |16, 17, 25, -555,
   |16, 25, 17, -1256,
   |16, 16, 16, 0,
   |17, 16, 25, -545,
   |17, 25, 16, -1072,
   |17, 17, 17, 0,
   |18, 28, 36, -460,
   |18, 28, 37, -477,
   |18, 36, 28, -849,
   |18, 36, 37, -840,
   |18, 37, 28, -940,
   |18, 37, 36, -914,
   |18, 40, 28, -686,
   |18, 40, 36, -704,
   |18, 40, 37, -661,
   |18, 18, 18, 0,
   |19, 7, 25, -599,
   |19, 7, 28, -594,
   |19, 7, 29, -610,
   |19, 25, 7, -1464,
   |19, 25, 28, -1478,
   |19, 25, 29, -1442,
   |19, 28, 7, -445,
   |19, 28, 25, -463,
   |19, 28, 29, -433,
   |19, 29, 7, -324,
   |19, 29, 25, -291,
   |19, 29, 28, -296,
   |19, 19, 19, 0,
   |20, 12, 1, -700,
   |20, 12, 21, -738,
   |20, 21, 1, -712,
   |20, 21, 12, -729,
   |20, 20, 20, 0,
   |21, 21, 21, 0,
   |22, 6, 27, -472,
   |22, 6, 30, -445,
   |22, 6, 38, -469,
   |22, 27, 6, -1561,
   |22, 27, 30, -1538,
   |22, 27, 38, -1561,
   |22, 30, 6, -456,
   |22, 30, 27, -461,
   |22, 30, 38, -472,
   |22, 38, 6, -646,
   |22, 38, 27, -649,
   |22, 38, 30, -638,
   |22, 22, 22, 0,
   |23, 5, 24, -1133,
   |23, 5, 28, -1124,
   |23, 5, 32, -1134,
   |23, 24, 5, -785,
   |23, 24, 28, -764,
   |23, 24, 32, -779,
   |23, 28, 5, -1060,
   |23, 28, 24, -1047,
   |23, 28, 32, -1068,
   |23, 32, 5, -1300,
   |23, 32, 24, -1293,
   |23, 32, 28, -1298,
   |23, 23, 23, 0,
   |24, 4, 23, -496,
   |24, 4, 28, -494,
   |24, 4, 32, -492,
   |24, 23, 4, -779,
   |24, 23, 28, -786,
   |24, 23, 32, -779,
   |24, 28, 4, -1567,
   |24, 28, 23, -1576,
   |24, 28, 32, -1576,
   |24, 32, 4, -1280,
   |24, 32, 23, -1283,
   |24, 32, 28, -1290,
   |24, 24, 24, 0,
   |25, 3, 10, -967,
   |25, 3, 16, -994,
   |25, 3, 17, -998,
   |25, 3, 19, -983,
   |25, 3, 33, -1003,
   |25, 10, 3, -414,
   |25, 10, 16, -438,
   |25, 10, 17, -434,
   |25, 10, 19, -445,
   |25, 10, 33, -421,
   |25, 16, 3, -1253,
   |25, 16, 10, -1250,
   |25, 16, 17, -1261,
   |25, 16, 19, -1250,
   |25, 16, 33, -1253,
   |25, 17, 3, -1083,
   |25, 17, 10, -1073,
   |25, 17, 16, -1088,
   |25, 17, 19, -1079,
   |25, 17, 33, -1085,
   |25, 19, 3, -1461,
   |25, 19, 10, -1476,
   |25, 19, 16, -1469,
   |25, 19, 17, -1472,
   |25, 19, 33, -1468,
   |25, 33, 3, -1136,
   |25, 33, 10, -1107,
   |25, 33, 16, -1128,
   |25, 33, 17, -1133,
   |25, 33, 19, -1124,
   |25, 25, 25, 0,
   |26, 2, 5, -730,
   |26, 2, 11, -738,
   |26, 2, 33, -753,
   |26, 2, 34, -736,
   |26, 5, 2, -892,
   |26, 5, 11, -913,
   |26, 5, 33, -913,
   |26, 5, 34, -912,
   |26, 11, 2, -1131,
   |26, 11, 5, -1144,
   |26, 11, 33, -1135,
   |26, 11, 34, -1153,
   |26, 33, 2, -916,
   |26, 33, 5, -913,
   |26, 33, 11, -904,
   |26, 33, 34, -901,
   |26, 34, 2, -424,
   |26, 34, 5, -439,
   |26, 34, 11, -448,
   |26, 34, 33, -427,
   |26, 26, 26, 0,
   |27, 6, 11, -1186,
   |27, 6, 15, -1201,
   |27, 6, 22, -1204,
   |27, 6, 31, -1201,
   |27, 6, 36, -1201,
   |27, 11, 6, -353,
   |27, 11, 15, -346,
   |27, 11, 22, -353,
   |27, 11, 31, -362,
   |27, 11, 36, -339,
   |27, 15, 6, -1075,
   |27, 15, 11, -1054,
   |27, 15, 22, -1074,
   |27, 15, 31, -1067,
   |27, 15, 36, -1076,
   |27, 22, 6, -1562,
   |27, 22, 11, -1546,
   |27, 22, 15, -1558,
   |27, 22, 31, -1561,
   |27, 22, 36, -1559,
   |27, 31, 6, -336,
   |27, 31, 11, -331,
   |27, 31, 15, -328,
   |27, 31, 22, -337,
   |27, 31, 36, -329,
   |27, 36, 6, -894,
   |27, 36, 11, -866,
   |27, 36, 15, -896,
   |27, 36, 22, -894,
   |27, 36, 31, -887,
   |27, 27, 27, 0,
   |28, 3, 18, -1565,
   |28, 3, 19, -1548,
   |28, 3, 23, -1586,
   |28, 3, 24, -1586,
   |28, 3, 29, -1549,
   |28, 3, 32, -1581,
   |28, 3, 37, -1573,
   |28, 18, 3, -463,
   |28, 18, 19, -478,
   |28, 18, 23, -448,
   |28, 18, 24, -454,
   |28, 18, 29, -474,
   |28, 18, 32, -472,
   |28, 18, 37, -475,
   |28, 19, 3, -426,
   |28, 19, 18, -457,
   |28, 19, 23, -436,
   |28, 19, 24, -440,
   |28, 19, 29, -466,
   |28, 19, 32, -450,
   |28, 19, 37, -459,
   |28, 23, 3, -1069,
   |28, 23, 18, -1033,
   |28, 23, 19, -1042,
   |28, 23, 24, -1071,
   |28, 23, 29, -1046,
   |28, 23, 32, -1061,
   |28, 23, 37, -1054,
   |28, 24, 3, -1576,
   |28, 24, 18, -1545,
   |28, 24, 19, -1552,
   |28, 24, 23, -1577,
   |28, 24, 29, -1553,
   |28, 24, 32, -1573,
   |28, 24, 37, -1568,
   |28, 29, 3, -670,
   |28, 29, 18, -698,
   |28, 29, 19, -710,
   |28, 29, 23, -684,
   |28, 29, 24, -685,
   |28, 29, 32, -690,
   |28, 29, 37, -700,
   |28, 32, 3, -997,
   |28, 32, 18, -989,
   |28, 32, 19, -987,
   |28, 32, 23, -993,
   |28, 32, 24, -999,
   |28, 32, 29, -984,
   |28, 32, 37, -1002,
   |28, 37, 3, -901,
   |28, 37, 18, -906,
   |28, 37, 19, -910,
   |28, 37, 23, -899,
   |28, 37, 24, -907,
   |28, 37, 29, -907,
   |28, 37, 32, -916,
   |28, 28, 28, 0,
   |29, 6, 1, -908,
   |29, 6, 19, -914,
   |29, 6, 28, -913,
   |29, 6, 30, -914,
   |29, 19, 1, -317,
   |29, 19, 6, -324,
   |29, 19, 28, -329,
   |29, 19, 30, -308,
   |29, 28, 1, -689,
   |29, 28, 6, -704,
   |29, 28, 19, -709,
   |29, 28, 30, -687,
   |29, 30, 1, -797,
   |29, 30, 6, -799,
   |29, 30, 19, -783,
   |29, 30, 28, -782,
   |29, 29, 29, 0,
   |30, 13, 1, -491,
   |30, 13, 22, -477,
   |30, 13, 29, -498,
   |30, 22, 1, -469,
   |30, 22, 13, -454,
   |30, 22, 29, -470,
   |30, 29, 1, -803,
   |30, 29, 13, -795,
   |30, 29, 22, -789,
   |30, 30, 30, 0,
   |31, 15, 27, -1041,
   |31, 27, 15, -326,
   |31, 31, 31, 0,
   |32, 10, 23, -520,
   |32, 10, 24, -516,
   |32, 10, 28, -525,
   |32, 23, 10, -1286,
   |32, 23, 24, -1301,
   |32, 23, 28, -1298,
   |32, 24, 10, -1272,
   |32, 24, 23, -1291,
   |32, 24, 28, -1279,
   |32, 28, 10, -991,
   |32, 28, 23, -999,
   |32, 28, 24, -990,
   |32, 32, 32, 0,
   |33, 3, 5, -450,
   |33, 3, 10, -446,
   |33, 3, 25, -449,
   |33, 3, 26, -452,
   |33, 5, 3, -1065,
   |33, 5, 10, -1068,
   |33, 5, 25, -1069,
   |33, 5, 26, -1065,
   |33, 10, 3, -1429,
   |33, 10, 5, -1435,
   |33, 10, 25, -1438,
   |33, 10, 26, -1435,
   |33, 25, 3, -1130,
   |33, 25, 5, -1135,
   |33, 25, 10, -1137,
   |33, 25, 26, -1134,
   |33, 26, 3, -920,
   |33, 26, 5, -917,
   |33, 26, 10, -920,
   |33, 26, 25, -920,
   |33, 33, 33, 0,
   |34, 11, 26, -718,
   |34, 26, 11, -404,
   |34, 34, 34, 0,
   |35, 35, 35, 0,
   |36, 9, 15, -575,
   |36, 9, 18, -555,
   |36, 9, 27, -559,
   |36, 15, 9, -534,
   |36, 15, 18, -526,
   |36, 15, 27, -520,
   |36, 18, 9, -852,
   |36, 18, 15, -864,
   |36, 18, 27, -870,
   |36, 27, 9, -878,
   |36, 27, 15, -880,
   |36, 27, 18, -892,
   |36, 40, 9, -421,
   |36, 40, 15, -430,
   |36, 40, 18, -429,
   |36, 40, 27, -417,
   |36, 36, 36, 0,
   |37, 18, 28, -948,
   |37, 28, 18, -916,
   |37, 37, 37, 0,
   |38, 6, 22, -527,
   |38, 22, 6, -648,
   |38, 38, 38, 0,
   |39, 39, 39, 0,
   |];

